p cnf 88 321
c p weight -7 1 0
c p weight 7 -1 0
c p weight 11 6.12323399573676603586882014729198302312846062338790031898128063403419218957424163818359375E-17 0
c p weight -11 1 0
c p weight 12 1 0
c p weight -12 1 0
c p weight -9 1 0
c p weight 9 -1 0
c p weight -13 1 0
c p weight 13 -1 0
c p weight -15 1 0
c p weight 15 -1 0
c p weight 19 6.12323399573676603586882014729198302312846062338790031898128063403419218957424163818359375E-17 0
c p weight -19 1 0
c p weight 20 1 0
c p weight -20 1 0
c p weight -17 1 0
c p weight 17 -1 0
c p weight -21 1 0
c p weight 21 -1 0
c p weight -23 1 0
c p weight 23 -1 0
c p weight 27 6.12323399573676603586882014729198302312846062338790031898128063403419218957424163818359375E-17 0
c p weight -27 1 0
c p weight 28 1 0
c p weight -28 1 0
c p weight -25 1 0
c p weight 25 -1 0
c p weight -29 1 0
c p weight 29 -1 0
c p weight -31 1 0
c p weight 31 -1 0
c p weight -34 1 0
c p weight 34 -1 0
c p weight 38 6.12323399573676603586882014729198302312846062338790031898128063403419218957424163818359375E-17 0
c p weight -38 1 0
c p weight 39 1 0
c p weight -39 1 0
c p weight -36 1 0
c p weight 36 -1 0
c p weight -40 1 0
c p weight 40 -1 0
c p weight -42 1 0
c p weight 42 -1 0
c p weight 46 6.12323399573676603586882014729198302312846062338790031898128063403419218957424163818359375E-17 0
c p weight -46 1 0
c p weight 47 1 0
c p weight -47 1 0
c p weight -44 1 0
c p weight 44 -1 0
c p weight -48 1 0
c p weight 48 -1 0
c p weight -50 1 0
c p weight 50 -1 0
c p weight 54 6.12323399573676603586882014729198302312846062338790031898128063403419218957424163818359375E-17 0
c p weight -54 1 0
c p weight 55 1 0
c p weight -55 1 0
c p weight -52 1 0
c p weight 52 -1 0
c p weight -56 1 0
c p weight 56 -1 0
c p weight -58 1 0
c p weight 58 -1 0
c p weight -61 1 0
c p weight 61 -1 0
c p weight 65 6.12323399573676603586882014729198302312846062338790031898128063403419218957424163818359375E-17 0
c p weight -65 1 0
c p weight 66 1 0
c p weight -66 1 0
c p weight -63 1 0
c p weight 63 -1 0
c p weight -67 1 0
c p weight 67 -1 0
c p weight -69 1 0
c p weight 69 -1 0
c p weight 73 6.12323399573676603586882014729198302312846062338790031898128063403419218957424163818359375E-17 0
c p weight -73 1 0
c p weight 74 1 0
c p weight -74 1 0
c p weight -71 1 0
c p weight 71 -1 0
c p weight -75 1 0
c p weight 75 -1 0
c p weight -77 1 0
c p weight 77 -1 0
c p weight -80 1 0
c p weight 80 -1 0
c p weight 84 6.12323399573676603586882014729198302312846062338790031898128063403419218957424163818359375E-17 0
c p weight -84 1 0
c p weight 85 1 0
c p weight -85 1 0
c p weight -82 1 0
c p weight 82 -1 0
c p weight -86 1 0
c p weight 86 -1 0
c p weight 88 0.5 0
c p weight -88 1 0
88 0
-5 0
-3 0
-1 0
-7 1 0
-7 2 0
7 -1 -2 0
8 1 -2 0
8 -1 2 0
-8 1 2 0
-8 -1 -2 0
-9 10 0
-9 8 0
-9 -1 0
9 -10 1 -8 0
10 -1 8 0
-10 1 8 0
-11 8 0
10 -11 -1 0
-10 -11 1 0
10 11 1 -8 0
-10 11 -1 -8 0
-12 8 0
10 -12 1 0
-10 -12 -1 0
10 12 -1 -8 0
-10 12 1 -8 0
-13 10 0
-13 8 0
13 -10 -8 0
14 10 -8 0
14 -10 8 0
-14 10 8 0
-14 -10 -8 0
-15 3 0
-15 4 0
15 -3 -4 0
16 3 -4 0
16 -3 4 0
-16 3 4 0
-16 -3 -4 0
-17 18 0
-17 16 0
-17 -3 0
17 -18 3 -16 0
18 -3 16 0
-18 3 16 0
-19 16 0
18 -19 -3 0
-18 -19 3 0
18 19 3 -16 0
-18 19 -3 -16 0
-20 16 0
18 -20 3 0
-18 -20 -3 0
18 20 -3 -16 0
-18 20 3 -16 0
-21 18 0
-21 16 0
21 -18 -16 0
22 18 -16 0
22 -18 16 0
-22 18 16 0
-22 -18 -16 0
-23 18 0
-23 22 0
23 -18 -22 0
24 18 -22 0
24 -18 22 0
-24 18 22 0
-24 -18 -22 0
-25 26 0
-25 24 0
-25 -18 0
25 -26 18 -24 0
26 -18 24 0
-26 18 24 0
-27 24 0
26 -27 -18 0
-26 -27 18 0
26 27 18 -24 0
-26 27 -18 -24 0
-28 24 0
26 -28 18 0
-26 -28 -18 0
26 28 -18 -24 0
-26 28 18 -24 0
-29 26 0
-29 24 0
29 -26 -24 0
30 26 -24 0
30 -26 24 0
-30 26 24 0
-30 -26 -24 0
-31 10 0
-31 30 0
-31 26 -14 0
-31 -26 14 0
31 -10 26 14 -30 0
31 -10 -26 -14 -30 0
33 10 -26 0
33 -10 26 0
-33 10 26 0
-33 -10 -26 0
32 14 -30 0
32 -14 30 0
-32 14 30 0
-32 -14 -30 0
-34 33 0
-34 30 0
34 -33 -30 0
35 33 -30 0
35 -33 30 0
-35 33 30 0
-35 -33 -30 0
-36 37 0
-36 35 0
-36 -33 0
36 -37 33 -35 0
37 -33 35 0
-37 33 35 0
-38 35 0
37 -38 -33 0
-37 -38 33 0
37 38 33 -35 0
-37 38 -33 -35 0
-39 35 0
37 -39 33 0
-37 -39 -33 0
37 39 -33 -35 0
-37 39 33 -35 0
-40 37 0
-40 35 0
40 -37 -35 0
41 37 -35 0
41 -37 35 0
-41 37 35 0
-41 -37 -35 0
-42 5 0
-42 6 0
42 -5 -6 0
43 5 -6 0
43 -5 6 0
-43 5 6 0
-43 -5 -6 0
-44 45 0
-44 43 0
-44 -5 0
44 -45 5 -43 0
45 -5 43 0
-45 5 43 0
-46 43 0
45 -46 -5 0
-45 -46 5 0
45 46 5 -43 0
-45 46 -5 -43 0
-47 43 0
45 -47 5 0
-45 -47 -5 0
45 47 -5 -43 0
-45 47 5 -43 0
-48 45 0
-48 43 0
48 -45 -43 0
49 45 -43 0
49 -45 43 0
-49 45 43 0
-49 -45 -43 0
-50 45 0
-50 49 0
50 -45 -49 0
51 45 -49 0
51 -45 49 0
-51 45 49 0
-51 -45 -49 0
-52 53 0
-52 51 0
-52 -45 0
52 -53 45 -51 0
53 -45 51 0
-53 45 51 0
-54 51 0
53 -54 -45 0
-53 -54 45 0
53 54 45 -51 0
-53 54 -45 -51 0
-55 51 0
53 -55 45 0
-53 -55 -45 0
53 55 -45 -51 0
-53 55 45 -51 0
-56 53 0
-56 51 0
56 -53 -51 0
57 53 -51 0
57 -53 51 0
-57 53 51 0
-57 -53 -51 0
-58 10 0
-58 57 0
-58 53 -32 0
-58 -53 32 0
58 -10 53 32 -57 0
58 -10 -53 -32 -57 0
60 10 -53 0
60 -10 53 0
-60 10 53 0
-60 -10 -53 0
59 32 -57 0
59 -32 57 0
-59 32 57 0
-59 -32 -57 0
-61 60 0
-61 57 0
61 -60 -57 0
62 60 -57 0
62 -60 57 0
-62 60 57 0
-62 -60 -57 0
-63 64 0
-63 62 0
-63 -60 0
63 -64 60 -62 0
64 -60 62 0
-64 60 62 0
-65 62 0
64 -65 -60 0
-64 -65 60 0
64 65 60 -62 0
-64 65 -60 -62 0
-66 62 0
64 -66 60 0
-64 -66 -60 0
64 66 -60 -62 0
-64 66 60 -62 0
-67 64 0
-67 62 0
67 -64 -62 0
68 64 -62 0
68 -64 62 0
-68 64 62 0
-68 -64 -62 0
-69 64 0
-69 68 0
69 -64 -68 0
70 64 -68 0
70 -64 68 0
-70 64 68 0
-70 -64 -68 0
-71 72 0
-71 70 0
-71 -64 0
71 -72 64 -70 0
72 -64 70 0
-72 64 70 0
-73 70 0
72 -73 -64 0
-72 -73 64 0
72 73 64 -70 0
-72 73 -64 -70 0
-74 70 0
72 -74 64 0
-72 -74 -64 0
72 74 -64 -70 0
-72 74 64 -70 0
-75 72 0
-75 70 0
75 -72 -70 0
76 72 -70 0
76 -72 70 0
-76 72 70 0
-76 -72 -70 0
-77 37 0
-77 76 0
-77 72 -41 0
-77 -72 41 0
77 -37 72 41 -76 0
77 -37 -72 -41 -76 0
79 37 -72 0
79 -37 72 0
-79 37 72 0
-79 -37 -72 0
78 41 -76 0
78 -41 76 0
-78 41 76 0
-78 -41 -76 0
-80 79 0
-80 76 0
80 -79 -76 0
81 79 -76 0
81 -79 76 0
-81 79 76 0
-81 -79 -76 0
-82 83 0
-82 81 0
-82 -79 0
82 -83 79 -81 0
83 -79 81 0
-83 79 81 0
-84 81 0
83 -84 -79 0
-83 -84 79 0
83 84 79 -81 0
-83 84 -79 -81 0
-85 81 0
83 -85 79 0
-83 -85 -79 0
83 85 -79 -81 0
-83 85 79 -81 0
-86 83 0
-86 81 0
86 -83 -81 0
87 83 -81 0
87 -83 81 0
-87 83 81 0
-87 -83 -81 0
-10 0
-37 0
-78 0
-83 0
-87 0
